Route #1: 40 88 67 44
Route #2: 75 93
Route #3: 38 47 26 48 96 64 34
Route #4: 28 42 78 65 25
Route #5: 32 33 53 73 95 24
Route #6: 63 77 3
Route #7: 8 17
Route #8: 89 98 99 62 71
Route #9: 14 49 6 37 87
Route #10: 54 70 1
Route #11: 68 90 84 66
Route #12: 30 85 11 79
Route #13: 5 12 58
Route #14: 35 46 31
Route #15: 50 91 52
Route #16: 82 60 59
Route #17: 21 56 94 80
Route #18: 100 61 23
Route #19: 76 55 16 69
Route #20: 18 10 39
Route #21: 86 9 92
Route #22: 27 97 19
Route #23: 7 2 45 43 29 36 72 57
Route #24: 15 22 41 20
Route #25: 83 51 81
Route #26: 4 13 74
Cost 27591.0000
Time 16.0004